c t wmc
c file mc2023_track2_012.cnf
p cnf 350 453
266 0
272 0
278 0
284 0
290 0
296 0
302 0
308 0
314 0
320 0
326 0
332 0
338 0
344 0
350 0
-41 0
-55 0
-66 0
-44 0
-57 0
-70 0
-42 0
-56 0
-67 0
-68 0
-69 0
-25 0
-43 0
-26 0
-54 0
-63 0
-27 0
-65 0
-72 0
-28 0
-64 0
-71 0
-53 0
-62 0
-51 0
-61 0
-50 0
-60 0
-52 0
-48 0
-29 0
-47 0
-30 0
-46 0
-31 0
-45 0
-32 0
-33 0
-34 0
-35 0
-36 0
-37 0
-38 0
-39 0
-40 0
-49 0
-59 0
-58 0
-194 0
-197 0
-200 0
-203 0
-130 0
-205 0
-121 0
-207 0
-209 0
-211 0
-213 0
-215 0
-125 0
-218 0
-220 0
-223 0
-129 0
-225 0
-149 0
-227 0
-230 0
-144 0
-148 0
-234 0
-237 0
-239 0
-283 0
-277 0
-295 0
-289 0
-271 0
-265 0
-331 0
-319 0
-325 0
-343 0
-349 0
-337 0
-307 0
-301 0
-313 0
-174 0
-166 0
-165 0
-173 0
-241 0
-243 0
-245 0
-247 0
-249 0
-251 0
-253 0
-255 0
-257 0
-259 0
-267 0
-273 0
-330 0
-324 0
-342 0
-348 0
-336 0
-306 0
-300 0
-318 0
-312 0
-274 0
-275 0
-264 0
-292 0
-286 0
-268 0
-262 0
-328 0
-340 0
-346 0
-322 0
-304 0
-334 0
-298 0
-310 0
-288 0
-270 0
-291 0
-261 0
-303 0
-345 0
-339 0
-327 0
-333 0
-321 0
-297 0
-309 0
-282 0
-311 0
-287 0
-269 0
-263 0
-329 0
-323 0
-341 0
-347 0
-335 0
-305 0
-299 0
-317 0
-281 0
-276 0
-279 0
-293 0
-315 0
-73 0
-74 0
-75 0
-76 0
-77 0
-78 0
-81 0
-82 0
-84 0
-85 0
-86 0
-87 0
-88 0
-89 0
-90 0
-91 0
-92 0
-95 0
-96 0
-97 0
-100 0
-102 0
-103 0
-104 0
-106 0
-108 0
-109 0
-111 0
-112 0
-136 0
-154 0
-155 0
-157 0
-160 0
-161 0
-177 0
-170 0
-175 0
-178 0
-169 0
-172 0
-153 0
-180 0
-181 0
-183 0
-184 0
-185 0
-186 0
-80 0
-196 0
-195 0
-206 0
-208 0
-210 0
-212 0
-214 0
-219 0
-222 0
-221 0
-236 0
-235 0
-240 0
-244 0
-248 0
-256 0
-258 0
-117 0
-119 0
-128 0
-199 0
-120 0
-122 0
-123 0
-127 0
-132 0
-133 0
-134 0
-158 0
-217 0
-216 0
-135 0
-142 0
-143 0
-150 0
-151 0
-152 0
-156 0
-164 0
-187 0
-189 0
-192 0
-198 0
-202 0
-224 0
-226 0
-231 0
-232 0
-238 0
-246 0
-250 0
-252 0
-260 0
-188 0
-79 0
-190 0
-83 0
-233 0
-280 0
-168 0
-140 0
-1 0
-147 0
-294 0
-2 0
-167 0
-285 0
-107 0
-139 0
-191 0
-113 0
-137 0
-193 0
-146 0
-126 15 13 -16 5 -14 0
-15 -16 13 -254 -114 -14 0
-145 -316 118 -162 -116 0
-145 -316 118 116 162 0
-316 -116 -162 145 -118 0
116 118 316 145 162 0
-5 94 3 -14 13 0
-145 -116 316 162 118 0
15 93 -13 3 16 0
14 15 12 -204 -16 0
-116 -118 145 316 162 0
-116 -316 118 162 145 0
-18 -19 131 -20 110 0
-145 -116 316 -162 -118 0
-116 -145 -316 -118 162 0
145 116 -162 316 -118 0
145 -116 -162 118 316 0
118 116 -162 145 -316 0
-316 -118 -162 116 -145 0
-145 116 316 162 -118 0
-16 5 -124 13 15 0
145 -118 162 -316 116 0
-145 118 116 316 -162 0
-23 -24 21 -242 -22 0
-15 228 3 -16 0
18 19 -114 20 0
14 -204 12 13 0
171 3 182 138 0
176 114 3 163 0
141 3 162 114 0
-13 138 -114 -16 0
-13 138 -114 -15 0
14 94 -13 3 0
-316 -182 179 -176 0
-316 -176 -179 182 0
-316 -182 -179 176 0
316 -176 182 179 0
-316 179 176 182 0
316 -179 182 176 0
-94 15 16 159 0
14 15 -138 16 0
316 -182 176 179 0
228 -13 3 16 0
-13 138 -114 -14 0
-18 114 -17 110 0
-5 16 15 -201 0
-19 114 -17 110 0
22 23 -105 24 0
316 -176 -182 -179 0
98 118 3 105 0
114 110 -17 -20 0
-12 159 3 -126 0
-16 -159 12 0
201 -16 13 0
16 -171 -114 0
-5 -12 124 0
24 23 98 0
-19 -141 115 0
16 -12 124 0
-15 -12 124 0
-228 16 13 0
-15 -159 12 0
-228 -16 15 0
-163 20 110 0
-159 94 12 0
14 -93 -16 0
14 -229 228 0
-131 19 17 0
-131 17 20 0
-131 17 -110 0
-20 115 110 0
4 105 110 0
19 -141 -115 0
-24 23 -98 0
179 254 3 0
99 145 3 0
-94 14 13 0
16 -13 204 0
23 242 21 0
229 -14 3 0
24 242 21 0
114 254 13 0
-15 201 13 0
14 -93 13 0
-163 -20 -110 0
-13 138 -254 0
-23 -21 105 0
-24 -21 105 0
-23 24 -98 0
22 242 21 0
-22 -21 105 0
-19 -115 141 0
93 -14 3 0
-116 -12 3 0
18 17 -131 0
-201 -5 -13 0
19 115 141 0
-93 14 -15 0
-94 -13 -14 0
-23 -24 98 0
-94 5 -14 0
-15 -13 204 0
-16 -171 114 0
20 -110 163 0
16 254 13 0
14 254 13 0
-20 163 110 0
171 16 114 0
171 -16 -114 0
-242 -21 105 0
15 254 13 0
229 116 12 0
-12 124 -13 0
126 -13 0
-94 -3 0
-163 -176 0
-145 -3 0
17 -114 0
-3 -162 0
-93 -3 0
-105 -118 0
-116 -229 0
-12 204 0
242 -105 0
-99 -145 0
14 126 0
-5 126 0
-15 126 0
-3 -182 0
-228 229 0
-105 -110 0
-118 -3 0
-182 -138 0
-159 -3 0
-115 20 0
201 5 0
-4 -110 0
16 126 0
21 -105 0
-98 -118 0
-141 -162 0
-115 -110 0
-3 -179 0
-159 126 0
-176 -114 0
-110 -114 0
-3 -176 0
-171 -182 0
114 -138 0
-124 12 0
-179 -254 0
254 -138 0
204 -14 0
-162 -114 0
13 -138 0
131 -17 0
c p weight 1 0.01080618 0
c p weight -1 0.98919382 0
c p weight 2 0.01508661 0
c p weight -2 0.98491339 0
c p weight 3 0.00339698 0
c p weight -3 0.99660302 0
c p weight 4 0.02241664 0
c p weight -4 0.97758336 0
c p weight 5 0.9662962 0
c p weight -5 0.0337038 0
c p weight 6 0.5 0
c p weight -6 0.5 0
c p weight 7 0.5 0
c p weight -7 0.5 0
c p weight 8 0.5 0
c p weight -8 0.5 0
c p weight 9 0.5 0
c p weight -9 0.5 0
c p weight 10 0.5 0
c p weight -10 0.5 0
c p weight 11 0.5 0
c p weight -11 0.5 0
c p weight 12 0.01376044 0
c p weight -12 0.98623956 0
c p weight 13 0.01340569 0
c p weight -13 0.98659431 0
c p weight 14 0.00286654 0
c p weight -14 0.99713346 0
c p weight 15 0.95579701 0
c p weight -15 0.04420299 0
c p weight 16 0.01763447 0
c p weight -16 0.98236553 0
c p weight 17 0.98500165 0
c p weight -17 0.01499835 0
c p weight 18 0.96750103 0
c p weight -18 0.03249897 0
c p weight 19 0.03806641 0
c p weight -19 0.96193359 0
c p weight 20 0.01677924 0
c p weight -20 0.98322076 0
c p weight 21 0.95718396 0
c p weight -21 0.04281604 0
c p weight 22 0.97402623 0
c p weight -22 0.02597377 0
c p weight 23 0.02621895 0
c p weight -23 0.97378105 0
c p weight 24 0.03357459 0
c p weight -24 0.96642541 0
c p weight 25 0.00513137 0
c p weight -25 0.99486863 0
c p weight 26 0.00876893 0
c p weight -26 0.99123107 0
c p weight 27 0.00696747 0
c p weight -27 0.99303253 0
c p weight 28 0.0249994 0
c p weight -28 0.9750006 0
c p weight 29 0.03887507 0
c p weight -29 0.96112493 0
c p weight 30 0.01811491 0
c p weight -30 0.98188509 0
c p weight 31 0.04618891 0
c p weight -31 0.95381109 0
c p weight 32 0.00908479 0
c p weight -32 0.99091521 0
c p weight 33 0.02371736 0
c p weight -33 0.97628264 0
c p weight 34 0.01794545 0
c p weight -34 0.98205455 0
c p weight 35 0.04161753 0
c p weight -35 0.95838247 0
c p weight 36 0.03554029 0
c p weight -36 0.96445971 0
c p weight 37 0.00527363 0
c p weight -37 0.99472637 0
c p weight 38 0.01914609 0
c p weight -38 0.98085391 0
c p weight 39 0.00435079 0
c p weight -39 0.99564921 0
c p weight 40 0.02800869 0
c p weight -40 0.97199131 0
c p weight 41 0.03487383 0
c p weight -41 0.96512617 0
c p weight 42 0.04576806 0
c p weight -42 0.95423194 0
c p weight 43 0.03450377 0
c p weight -43 0.96549623 0
c p weight 44 0.0142232 0
c p weight -44 0.9857768 0
c p weight 45 0.04634545 0
c p weight -45 0.95365455 0
c p weight 46 0.02663546 0
c p weight -46 0.97336454 0
c p weight 47 0.04164524 0
c p weight -47 0.95835476 0
c p weight 48 0.04349073 0
c p weight -48 0.95650927 0
c p weight 49 0.01419672 0
c p weight -49 0.98580328 0
c p weight 50 0.02653419 0
c p weight -50 0.97346581 0
c p weight 51 0.03006698 0
c p weight -51 0.96993302 0
c p weight 52 0.03938272 0
c p weight -52 0.96061728 0
c p weight 53 0.04707334 0
c p weight -53 0.95292666 0
c p weight 54 0.03777049 0
c p weight -54 0.96222951 0
c p weight 55 0.00860614 0
c p weight -55 0.99139386 0
c p weight 56 0.03314939 0
c p weight -56 0.96685061 0
c p weight 57 0.04934249 0
c p weight -57 0.95065751 0
c p weight 58 0.02751648 0
c p weight -58 0.97248352 0
c p weight 59 0.04138258 0
c p weight -59 0.95861742 0
c p weight 60 0.01373643 0
c p weight -60 0.98626357 0
c p weight 61 0.02401082 0
c p weight -61 0.97598918 0
c p weight 62 0.01453493 0
c p weight -62 0.98546507 0
c p weight 63 0.00634991 0
c p weight -63 0.99365009 0
c p weight 64 0.00913836 0
c p weight -64 0.99086164 0
c p weight 65 0.0447227 0
c p weight -65 0.9552773 0
c p weight 66 0.00220253 0
c p weight -66 0.99779747 0
c p weight 67 0.01705021 0
c p weight -67 0.98294979 0
c p weight 68 0.02300116 0
c p weight -68 0.97699884 0
c p weight 69 0.01539634 0
c p weight -69 0.98460366 0
c p weight 70 0.0009906 0
c p weight -70 0.9990094 0
c p weight 71 0.03914326 0
c p weight -71 0.96085674 0
c p weight 72 0.03774243 0
c p weight -72 0.96225757 0
c p weight 73 0.04071106 0
c p weight -73 0.95928894 0
c p weight 74 0.04532283 0
c p weight -74 0.95467717 0
c p weight 75 0.0141465 0
c p weight -75 0.9858535 0
c p weight 76 0.03407259 0
c p weight -76 0.96592741 0
c p weight 77 0.04101589 0
c p weight -77 0.95898411 0
c p weight 78 0.02270922 0
c p weight -78 0.97729078 0
c p weight 79 0.008993 0
c p weight -79 0.991007 0
c p weight 80 0.00249889 0
c p weight -80 0.99750111 0
c p weight 81 0.01589541 0
c p weight -81 0.98410459 0
c p weight 82 0.02742953 0
c p weight -82 0.97257047 0
c p weight 83 0.04164579 0
c p weight -83 0.95835421 0
c p weight 84 0.03672094 0
c p weight -84 0.96327906 0
c p weight 85 0.03513889 0
c p weight -85 0.96486111 0
c p weight 86 0.03968757 0
c p weight -86 0.96031243 0
c p weight 87 0.01499878 0
c p weight -87 0.98500122 0
c p weight 88 0.01161742 0
c p weight -88 0.98838258 0
c p weight 89 0.00238639 0
c p weight -89 0.99761361 0
c p weight 90 0.02735669 0
c p weight -90 0.97264331 0
c p weight 91 0.04245746 0
c p weight -91 0.95754254 0
c p weight 92 0.01500886 0
c p weight -92 0.98499114 0
c p weight 93 0.03422338 0
c p weight -93 0.96577662 0
c p weight 94 0.04927013 0
c p weight -94 0.95072987 0
c p weight 95 0.04122505 0
c p weight -95 0.95877495 0
c p weight 96 0.04127973 0
c p weight -96 0.95872027 0
c p weight 97 0.04395323 0
c p weight -97 0.95604677 0
c p weight 98 0.97397273 0
c p weight -98 0.02602727 0
c p weight 99 0.01567025 0
c p weight -99 0.98432975 0
c p weight 100 0.03335324 0
c p weight -100 0.96664676 0
c p weight 101 0.5 0
c p weight -101 0.5 0
c p weight 102 0.0172316 0
c p weight -102 0.9827684 0
c p weight 103 0.04671827 0
c p weight -103 0.95328173 0
c p weight 104 0.02654455 0
c p weight -104 0.97345545 0
c p weight 105 0.95197701 0
c p weight -105 0.04802299 0
c p weight 106 0.04233999 0
c p weight -106 0.95766001 0
c p weight 107 0.01692784 0
c p weight -107 0.98307216 0
c p weight 108 0.0374528 0
c p weight -108 0.9625472 0
c p weight 109 0.02341832 0
c p weight -109 0.97658168 0
c p weight 110 0.02045851 0
c p weight -110 0.97954149 0
c p weight 111 0.02476013 0
c p weight -111 0.97523987 0
c p weight 112 0.0200422 0
c p weight -112 0.9799578 0
c p weight 113 0.03317348 0
c p weight -113 0.96682652 0
c p weight 114 0.98822625 0
c p weight -114 0.01177375 0
c p weight 115 0.00780416 0
c p weight -115 0.99219584 0
c p weight 116 0.9906991 0
c p weight -116 0.0093009 0
c p weight 117 0.01770637 0
c p weight -117 0.98229363 0
c p weight 118 0.02784221 0
c p weight -118 0.97215779 0
c p weight 119 0.03487723 0
c p weight -119 0.96512277 0
c p weight 120 0.04157687 0
c p weight -120 0.95842313 0
c p weight 121 0.03178692 0
c p weight -121 0.96821308 0
c p weight 122 0.00364692 0
c p weight -122 0.99635308 0
c p weight 123 0.00130312 0
c p weight -123 0.99869688 0
c p weight 124 0.02218975 0
c p weight -124 0.97781025 0
c p weight 125 0.01740305 0
c p weight -125 0.98259695 0
c p weight 126 0.97717413 0
c p weight -126 0.02282587 0
c p weight 127 0.04745298 0
c p weight -127 0.95254702 0
c p weight 128 0.01887727 0
c p weight -128 0.98112273 0
c p weight 129 0.02782428 0
c p weight -129 0.97217572 0
c p weight 130 0.02282895 0
c p weight -130 0.97717105 0
c p weight 131 0.99216367 0
c p weight -131 0.00783633 0
c p weight 132 0.02944481 0
c p weight -132 0.97055519 0
c p weight 133 0.02089225 0
c p weight -133 0.97910775 0
c p weight 134 0.03319095 0
c p weight -134 0.96680905 0
c p weight 135 0.01007404 0
c p weight -135 0.98992596 0
c p weight 136 0.01836436 0
c p weight -136 0.98163564 0
c p weight 137 0.04853601 0
c p weight -137 0.95146399 0
c p weight 138 0.00564732 0
c p weight -138 0.99435268 0
c p weight 139 0.04098447 0
c p weight -139 0.95901553 0
c p weight 140 0.0133716 0
c p weight -140 0.9866284 0
c p weight 141 0.97810317 0
c p weight -141 0.02189683 0
c p weight 142 0.01668415 0
c p weight -142 0.98331585 0
c p weight 143 0.03853659 0
c p weight -143 0.96146341 0
c p weight 144 0.01103229 0
c p weight -144 0.98896771 0
c p weight 145 0.99712355 0
c p weight -145 0.00287645 0
c p weight 146 0.02390519 0
c p weight -146 0.97609481 0
c p weight 147 0.003251 0
c p weight -147 0.996749 0
c p weight 148 0.02648601 0
c p weight -148 0.97351399 0
c p weight 149 0.03119537 0
c p weight -149 0.96880463 0
c p weight 150 0.03039695 0
c p weight -150 0.96960305 0
c p weight 151 0.04260746 0
c p weight -151 0.95739254 0
c p weight 152 0.04056831 0
c p weight -152 0.95943169 0
c p weight 153 0.03275877 0
c p weight -153 0.96724123 0
c p weight 154 0.00528715 0
c p weight -154 0.99471285 0
c p weight 155 0.03885459 0
c p weight -155 0.96114541 0
c p weight 156 0.01555164 0
c p weight -156 0.98444836 0
c p weight 157 0.04824721 0
c p weight -157 0.95175279 0
c p weight 158 0.03801926 0
c p weight -158 0.96198074 0
c p weight 159 0.04196457 0
c p weight -159 0.95803543 0
c p weight 160 0.03304785 0
c p weight -160 0.96695215 0
c p weight 161 0.01779175 0
c p weight -161 0.98220825 0
c p weight 162 0.03141126 0
c p weight -162 0.96858874 0
c p weight 163 0.02063955 0
c p weight -163 0.97936045 0
c p weight 164 0.0014098 0
c p weight -164 0.9985902 0
c p weight 165 0.01507938 0
c p weight -165 0.98492062 0
c p weight 166 0.01624912 0
c p weight -166 0.98375088 0
c p weight 167 0.01636927 0
c p weight -167 0.98363073 0
c p weight 168 0.03142774 0
c p weight -168 0.96857226 0
c p weight 169 0.01848574 0
c p weight -169 0.98151426 0
c p weight 170 0.03911135 0
c p weight -170 0.96088865 0
c p weight 171 0.04140507 0
c p weight -171 0.95859493 0
c p weight 172 0.01893542 0
c p weight -172 0.98106458 0
c p weight 173 0.0410607 0
c p weight -173 0.9589393 0
c p weight 174 0.00253332 0
c p weight -174 0.99746668 0
c p weight 175 0.03567367 0
c p weight -175 0.96432633 0
c p weight 176 0.04713226 0
c p weight -176 0.95286774 0
c p weight 177 0.02199042 0
c p weight -177 0.97800958 0
c p weight 178 0.03804335 0
c p weight -178 0.96195665 0
c p weight 179 0.03615479 0
c p weight -179 0.96384521 0
c p weight 180 0.03683277 0
c p weight -180 0.96316723 0
c p weight 181 0.02942668 0
c p weight -181 0.97057332 0
c p weight 182 0.95066847 0
c p weight -182 0.04933153 0
c p weight 183 0.04810007 0
c p weight -183 0.95189993 0
c p weight 184 0.02539282 0
c p weight -184 0.97460718 0
c p weight 185 0.03913441 0
c p weight -185 0.96086559 0
c p weight 186 0.04597507 0
c p weight -186 0.95402493 0
c p weight 187 0.00653496 0
c p weight -187 0.99346504 0
c p weight 188 0.02935632 0
c p weight -188 0.97064368 0
c p weight 189 0.02259798 0
c p weight -189 0.97740202 0
c p weight 190 0.04235761 0
c p weight -190 0.95764239 0
c p weight 191 0.02785907 0
c p weight -191 0.97214093 0
c p weight 192 0.04780297 0
c p weight -192 0.95219703 0
c p weight 193 0.00900338 0
c p weight -193 0.99099662 0
c p weight 194 0.03313843 0
c p weight -194 0.96686157 0
c p weight 195 0.01156056 0
c p weight -195 0.98843944 0
c p weight 196 0.02712703 0
c p weight -196 0.97287297 0
c p weight 197 0.04249975 0
c p weight -197 0.95750025 0
c p weight 198 0.03965648 0
c p weight -198 0.96034352 0
c p weight 199 0.03219589 0
c p weight -199 0.96780411 0
c p weight 200 0.00461234 0
c p weight -200 0.99538766 0
c p weight 201 0.99423317 0
c p weight -201 0.00576683 0
c p weight 202 0.00572673 0
c p weight -202 0.99427327 0
c p weight 203 0.01016903 0
c p weight -203 0.98983097 0
c p weight 204 0.0255846 0
c p weight -204 0.9744154 0
c p weight 205 0.01655205 0
c p weight -205 0.98344795 0
c p weight 206 0.03497377 0
c p weight -206 0.96502623 0
c p weight 207 0.04789291 0
c p weight -207 0.95210709 0
c p weight 208 0.02169235 0
c p weight -208 0.97830765 0
c p weight 209 0.00146581 0
c p weight -209 0.99853419 0
c p weight 210 0.03460073 0
c p weight -210 0.96539927 0
c p weight 211 0.00215041 0
c p weight -211 0.99784959 0
c p weight 212 0.00647367 0
c p weight -212 0.99352633 0
c p weight 213 0.02517739 0
c p weight -213 0.97482261 0
c p weight 214 0.03402799 0
c p weight -214 0.96597201 0
c p weight 215 0.00771212 0
c p weight -215 0.99228788 0
c p weight 216 0.014559 0
c p weight -216 0.985441 0
c p weight 217 0.0456933 0
c p weight -217 0.9543067 0
c p weight 218 0.04745466 0
c p weight -218 0.95254534 0
c p weight 219 0.0269579 0
c p weight -219 0.9730421 0
c p weight 220 0.03887282 0
c p weight -220 0.96112718 0
c p weight 221 0.01384106 0
c p weight -221 0.98615894 0
c p weight 222 0.01326587 0
c p weight -222 0.98673413 0
c p weight 223 0.00273821 0
c p weight -223 0.99726179 0
c p weight 224 0.04023172 0
c p weight -224 0.95976828 0
c p weight 225 0.0178602 0
c p weight -225 0.9821398 0
c p weight 226 0.00183609 0
c p weight -226 0.99816391 0
c p weight 227 0.02757871 0
c p weight -227 0.97242129 0
c p weight 228 0.03460207 0
c p weight -228 0.96539793 0
c p weight 229 0.04533475 0
c p weight -229 0.95466525 0
c p weight 230 0.03158986 0
c p weight -230 0.96841014 0
c p weight 231 0.00749279 0
c p weight -231 0.99250721 0
c p weight 232 0.01984577 0
c p weight -232 0.98015423 0
c p weight 233 0.00323783 0
c p weight -233 0.99676217 0
c p weight 234 0.01875362 0
c p weight -234 0.98124638 0
c p weight 235 0.00488631 0
c p weight -235 0.99511369 0
c p weight 236 0.00999703 0
c p weight -236 0.99000297 0
c p weight 237 0.0325754 0
c p weight -237 0.9674246 0
c p weight 238 0.02011349 0
c p weight -238 0.97988651 0
c p weight 239 0.03306252 0
c p weight -239 0.96693748 0
c p weight 240 0.01819455 0
c p weight -240 0.98180545 0
c p weight 241 0.02795669 0
c p weight -241 0.97204331 0
c p weight 242 0.97605502 0
c p weight -242 0.02394498 0
c p weight 243 0.01925975 0
c p weight -243 0.98074025 0
c p weight 244 0.03065691 0
c p weight -244 0.96934309 0
c p weight 245 0.02508862 0
c p weight -245 0.97491138 0
c p weight 246 0.03437526 0
c p weight -246 0.96562474 0
c p weight 247 0.00886331 0
c p weight -247 0.99113669 0
c p weight 248 0.01073145 0
c p weight -248 0.98926855 0
c p weight 249 0.02471898 0
c p weight -249 0.97528102 0
c p weight 250 0.02938119 0
c p weight -250 0.97061881 0
c p weight 251 0.02305234 0
c p weight -251 0.97694766 0
c p weight 252 0.00754064 0
c p weight -252 0.99245936 0
c p weight 253 0.03222248 0
c p weight -253 0.96777752 0
c p weight 254 0.98949396 0
c p weight -254 0.01050604 0
c p weight 255 0.02134586 0
c p weight -255 0.97865414 0
c p weight 256 0.02292623 0
c p weight -256 0.97707377 0
c p weight 257 0.00970695 0
c p weight -257 0.99029305 0
c p weight 258 0.0144162 0
c p weight -258 0.9855838 0
c p weight 259 0.03549951 0
c p weight -259 0.96450049 0
c p weight 260 0.00671858 0
c p weight -260 0.99328142 0
c p weight 261 0.00150453 0
c p weight -261 0.99849547 0
c p weight 262 0.03812925 0
c p weight -262 0.96187075 0
c p weight 263 0.00698972 0
c p weight -263 0.99301028 0
c p weight 264 0.02483986 0
c p weight -264 0.97516014 0
c p weight 265 0.04341597 0
c p weight -265 0.95658403 0
c p weight 266 0.96953297 0
c p weight -266 0.03046703 0
c p weight 267 0.03778506 0
c p weight -267 0.96221494 0
c p weight 268 0.04980194 0
c p weight -268 0.95019806 0
c p weight 269 0.02730607 0
c p weight -269 0.97269393 0
c p weight 270 0.00978457 0
c p weight -270 0.99021543 0
c p weight 271 0.03031372 0
c p weight -271 0.96968628 0
c p weight 272 0.99553911 0
c p weight -272 0.00446089 0
c p weight 273 0.0259084 0
c p weight -273 0.9740916 0
c p weight 274 0.00383374 0
c p weight -274 0.99616626 0
c p weight 275 0.00488852 0
c p weight -275 0.99511148 0
c p weight 276 0.0385115 0
c p weight -276 0.9614885 0
c p weight 277 0.00477908 0
c p weight -277 0.99522092 0
c p weight 278 0.95700859 0
c p weight -278 0.04299141 0
c p weight 279 0.03318053 0
c p weight -279 0.96681947 0
c p weight 280 0.01065073 0
c p weight -280 0.98934927 0
c p weight 281 0.02159869 0
c p weight -281 0.97840131 0
c p weight 282 0.01055146 0
c p weight -282 0.98944854 0
c p weight 283 0.03959484 0
c p weight -283 0.96040516 0
c p weight 284 0.99663794 0
c p weight -284 0.00336206 0
c p weight 285 0.00281059 0
c p weight -285 0.99718941 0
c p weight 286 0.02677884 0
c p weight -286 0.97322116 0
c p weight 287 0.00815468 0
c p weight -287 0.99184532 0
c p weight 288 0.04928669 0
c p weight -288 0.95071331 0
c p weight 289 0.03408958 0
c p weight -289 0.96591042 0
c p weight 290 0.95619724 0
c p weight -290 0.04380276 0
c p weight 291 0.02222072 0
c p weight -291 0.97777928 0
c p weight 292 0.03249155 0
c p weight -292 0.96750845 0
c p weight 293 0.04542841 0
c p weight -293 0.95457159 0
c p weight 294 0.02395728 0
c p weight -294 0.97604272 0
c p weight 295 0.00251359 0
c p weight -295 0.99748641 0
c p weight 296 0.99217833 0
c p weight -296 0.00782167 0
c p weight 297 0.02199419 0
c p weight -297 0.97800581 0
c p weight 298 0.01547029 0
c p weight -298 0.98452971 0
c p weight 299 0.02545395 0
c p weight -299 0.97454605 0
c p weight 300 0.02239366 0
c p weight -300 0.97760634 0
c p weight 301 0.04787172 0
c p weight -301 0.95212828 0
c p weight 302 0.97431905 0
c p weight -302 0.02568095 0
c p weight 303 0.01002916 0
c p weight -303 0.98997084 0
c p weight 304 0.04951599 0
c p weight -304 0.95048401 0
c p weight 305 0.04806147 0
c p weight -305 0.95193853 0
c p weight 306 0.02027833 0
c p weight -306 0.97972167 0
c p weight 307 0.03970523 0
c p weight -307 0.96029477 0
c p weight 308 0.99991873 0
c p weight -308 8.127e-05 0
c p weight 309 0.03458979 0
c p weight -309 0.96541021 0
c p weight 310 0.04945598 0
c p weight -310 0.95054402 0
c p weight 311 0.01222151 0
c p weight -311 0.98777849 0
c p weight 312 0.03495385 0
c p weight -312 0.96504615 0
c p weight 313 0.03756456 0
c p weight -313 0.96243544 0
c p weight 314 0.97045274 0
c p weight -314 0.02954726 0
c p weight 315 0.00559059 0
c p weight -315 0.99440941 0
c p weight 316 0.97254826 0
c p weight -316 0.02745174 0
c p weight 317 0.02702439 0
c p weight -317 0.97297561 0
c p weight 318 0.02836019 0
c p weight -318 0.97163981 0
c p weight 319 0.0329191 0
c p weight -319 0.9670809 0
c p weight 320 0.98844134 0
c p weight -320 0.01155866 0
c p weight 321 0.0185961 0
c p weight -321 0.9814039 0
c p weight 322 0.03994452 0
c p weight -322 0.96005548 0
c p weight 323 0.02181065 0
c p weight -323 0.97818935 0
c p weight 324 0.0402551 0
c p weight -324 0.9597449 0
c p weight 325 0.04837959 0
c p weight -325 0.95162041 0
c p weight 326 0.97187822 0
c p weight -326 0.02812178 0
c p weight 327 0.03036212 0
c p weight -327 0.96963788 0
c p weight 328 0.00870738 0
c p weight -328 0.99129262 0
c p weight 329 0.0285322 0
c p weight -329 0.9714678 0
c p weight 330 0.01772447 0
c p weight -330 0.98227553 0
c p weight 331 0.02792073 0
c p weight -331 0.97207927 0
c p weight 332 0.96226108 0
c p weight -332 0.03773892 0
c p weight 333 0.00026787 0
c p weight -333 0.99973213 0
c p weight 334 0.01727724 0
c p weight -334 0.98272276 0
c p weight 335 0.03208844 0
c p weight -335 0.96791156 0
c p weight 336 0.03562002 0
c p weight -336 0.96437998 0
c p weight 337 0.0025373 0
c p weight -337 0.9974627 0
c p weight 338 0.97599013 0
c p weight -338 0.02400987 0
c p weight 339 0.0457158 0
c p weight -339 0.9542842 0
c p weight 340 0.00280763 0
c p weight -340 0.99719237 0
c p weight 341 0.04447619 0
c p weight -341 0.95552381 0
c p weight 342 0.0203697 0
c p weight -342 0.9796303 0
c p weight 343 0.01731809 0
c p weight -343 0.98268191 0
c p weight 344 0.98268423 0
c p weight -344 0.01731577 0
c p weight 345 0.00863626 0
c p weight -345 0.99136374 0
c p weight 346 0.02857803 0
c p weight -346 0.97142197 0
c p weight 347 0.02349754 0
c p weight -347 0.97650246 0
c p weight 348 0.03066651 0
c p weight -348 0.96933349 0
c p weight 349 0.00520325 0
c p weight -349 0.99479675 0
c p weight 350 0.98271731 0
c p weight -350 0.01728269 0
